(set-info :smt-lib-version 2.6)
(set-logic ANIA)
(set-info :source |
Generated by: Matthias Heizmann
Generated on: 2024-04-13
Generator: Ultimate Automizer
Application: Software Verification
Generated by the tool Ultimate Automizer [1,2] which implements
an automata theoretic approach [3] to software verification.

This SMT script belongs to a set of SMT scripts that was generated by
applying Ultimate Automizer to benchmarks [4] from the SV-COMP 2024 [5,6].
This script may not contain all SMT commands that Ultimate Automizer
issued. In order to meet the restrictions for SMT-COMP benchmarks 
we dropped the commands for getting values (resp. models), 
unsatisfiable cores, and interpolants.

2024-04-13, Matthias Heizmann (heizmann@informatik.uni-freiburg.de)

[1] https://ultimate.informatik.uni-freiburg.de/automizer/
[2] Matthias Heizmann, Max Barth, Daniel Dietsch, Leonard Fichtner,
     Jochen Hoenicke, Dominik Klumpp, Mehdi Naouar, Tanja Schindler,
     Frank Schüssele, Andreas Podelski: Ultimate Automizer and the
     CommuHash Normal Form (Competition Contribution). TACAS 2023
[3] Matthias Heizmann, Jochen Hoenicke, Andreas Podelski: Software Model
     Checking for People Who Love Automata. CAV 2013
[4] https://github.com/sosy-lab/sv-benchmarks
[5] Dirk Beyer: State of the Art in Software Verification and
     Witness Validation: SV-COMP 2024.  TACAS 2024
[6] https://sv-comp.sosy-lab.org/2024/
|)
(set-info :license "https://creativecommons.org/licenses/by/4.0/")
(set-info :category "industrial")
(set-info :status unknown)
(declare-fun |#memory_int_-1| () (Array Int (Array Int Int)))
(declare-fun |#StackHeapBarrier_-1| () Int)
(declare-fun |#length_-1| () (Array Int Int))
(declare-fun |#valid_-1| () (Array Int Int))
(declare-fun |ULTIMATE.start_main_~i~0#1_1| () Int)
(declare-fun |ULTIMATE.start_main_~i~0#1_3| () Int)
(declare-fun |ULTIMATE.start___VERIFIER_assert_~cond#1_5| () Int)
(declare-fun |v_ULTIMATE.start___VERIFIER_assert_#in~cond#1_6_fresh_1| () Int)
(assert (not false))
(assert (<= 48 (select (select |#memory_int_-1| 1) 0)))
(assert (>= 48 (select (select |#memory_int_-1| 1) 0)))
(assert (<= (select |#valid_-1| 2) 1))
(assert (>= (select |#valid_-1| 2) 1))
(assert (<= (select |#valid_-1| 0) 0))
(assert (>= (select |#valid_-1| 0) 0))
(assert (< 0 |#StackHeapBarrier_-1|))
(assert (<= (select |#valid_-1| 1) 1))
(assert (>= (select |#valid_-1| 1) 1))
(assert (<= (select |#length_-1| 2) 25))
(assert (>= (select |#length_-1| 2) 25))
(assert (<= 2 (select |#length_-1| 1)))
(assert (>= 2 (select |#length_-1| 1)))
(assert (<= (select (select |#memory_int_-1| 1) 1) 0))
(assert (>= (select (select |#memory_int_-1| 1) 1) 0))
(assert (<= 0 (+ |ULTIMATE.start_main_~i~0#1_1| 2147483648)))
(assert (<= |ULTIMATE.start_main_~i~0#1_1| 2147483647))
(assert (< |ULTIMATE.start_main_~i~0#1_1| 10))
(assert (< 0 (+ |ULTIMATE.start_main_~i~0#1_1| 10)))
(assert (forall ((v_it_1 Int)) (or (< (+ (* |ULTIMATE.start_main_~i~0#1_1| |ULTIMATE.start_main_~i~0#1_1|) (* 2 (* |ULTIMATE.start_main_~i~0#1_1| v_it_1)) (* v_it_1 v_it_1)) 100) (< v_it_1 1) (< |ULTIMATE.start_main_~i~0#1_3| (+ |ULTIMATE.start_main_~i~0#1_1| v_it_1 1)))))
(assert (<= (* |ULTIMATE.start_main_~i~0#1_1| |ULTIMATE.start_main_~i~0#1_1|) 99))
(assert (<= (+ |ULTIMATE.start_main_~i~0#1_1| 1) |ULTIMATE.start_main_~i~0#1_3|))
(assert (<= 100 (* |ULTIMATE.start_main_~i~0#1_3| |ULTIMATE.start_main_~i~0#1_3|)))
(assert (<= (ite (= |ULTIMATE.start_main_~i~0#1_3| 10) 1 0) |v_ULTIMATE.start___VERIFIER_assert_#in~cond#1_6_fresh_1|))
(assert (>= (ite (= |ULTIMATE.start_main_~i~0#1_3| 10) 1 0) |v_ULTIMATE.start___VERIFIER_assert_#in~cond#1_6_fresh_1|))
(assert (<= |ULTIMATE.start___VERIFIER_assert_~cond#1_5| |v_ULTIMATE.start___VERIFIER_assert_#in~cond#1_6_fresh_1|))
(assert (>= |ULTIMATE.start___VERIFIER_assert_~cond#1_5| |v_ULTIMATE.start___VERIFIER_assert_#in~cond#1_6_fresh_1|))
(assert (<= |ULTIMATE.start___VERIFIER_assert_~cond#1_5| 0))
(assert (>= |ULTIMATE.start___VERIFIER_assert_~cond#1_5| 0))
(check-sat)
(exit)
